units		lj
atom_style		atomic
dimension		3
boundary		p p p

#creating atoms in a sc lattice
lattice		sc 0.6 
region		box block 0 10 0 10 0 10 
create_box		1 box
create_atoms	1 box

#setting up potentials
pair_style		lj/cut 3.5
pair_modify	shift yes
pair_coeff		1 1 1.0 1.0
mass		1 1.0

neighbor		0.3 bin
neigh_modify	delay 10 every 1

fix		1 all nvt temp 1.0 1.0 5.0

velocity		all create 1.0 199956 mom no

timestep		0.01

thermo_style	custom step temp etotal pe ke press vol density
thermo		500

run_style		verlet

run		1000


